webassembly/ejemplos_dzn/11/folder11_json_63.dzn
TERM = { '.', 's(2)', 'in_1', 'local_0', 'local_1', 'in_6', 'in_2', 'in_4', 'in_3', 's(1)', 's(0)', 'in_5', 's(3)', 'in_0'};
null = '.';
s = 11;
n = 12;
ndeps = 3;
max_registers_sz = 4;
NR = 1;
registers = [|'local_1', 'in_6'|];
dependencies = [|'i32.load16_u_1', 'i32.store_6', |'i32.store_6', 'i32.store_9', |'i32.load8_u_4', 'i32.store_6'|];
GET_ENUM = { GET1, GET2, GET3, GET4, GET5};
SET_ENUM = { SET1, SET2, SET3, SET4, SET5};
TEE_ENUM = { TEE1, TEE2, TEE3, TEE4, TEE5};
N = 7;
OP = { 'i32.load16_u_1', 'i32.sub_0', 'i32.load8_u_4', 'i32.store_6', 'i32.add_0', 'i32.store_9', 'local.get_0' };
in_ops = [1, 2, 1, 2, 2, 2, 0 ];
out_ops = [1, 1, 1, 0, 1, 0, 1 ];
in1 = ['in_0', 's(0)', 's(1)', 'in_2', 'in_4', 'local_0', '.' ];
in2 = ['.', 'in_1', '.', 'in_3', 'in_5', 's(3)', '.' ];
in3 = ['.', '.', '.', '.', '.', '.', '.' ];
out1 = ['s(0)', 's(1)', 's(2)', '.', 's(3)', '.', 'local_0' ];
out2 = ['.', '.', '.', '.', '.', '.', '.' ];
out3 = ['.', '.', '.', '.', '.', '.', '.' ];
comm = [false, false, false, false, true, false, false ];
gas = [1, 1, 1, 1, 1, 1, 1 ];
sz = [1, 1, 1, 1, 1, 1, 1 ];
stor = [false, false, false, true, false, true, false ];
lb = [ 1, 1, 1, 1, 1, 1, 1 ];
ub = [ 11, 11, 11, 11, 11, 11, 11 ];
startstack = [ 'in_0', 'in_1', 'in_2', 'in_3', 'in_4', 'in_5', 'in_6', null, null, null, null, null ];
endstack = [ null, null, null, null, null, null, null, null, null, null, null, null ];
