webassembly/ejemplos_results/11/folder11_json_63.txt
value = 11;
fgas = [2, 1, 1, 1, 1, 1, 1, 1, 1, 1, 1];
fsize = [1, 1, 1, 1, 1, 1, 1, 1, 1, 1, 1];
states = 
[|    in_0,   in_1, in_2, in_3, in_4, in_5, in_6, '.', '.', '.', '.',     '.'
 |    in_1,   in_2, in_3, in_4, in_5, in_6,  '.', '.', '.', '.', '.',     '.'
 |    in_2,   in_3, in_4, in_5, in_6,  '.',  '.', '.', '.', '.', '.',     '.'
 |    in_4,   in_5, in_6,  '.',  '.',  '.',  '.', '.', '.', '.', '.',     '.'
 |  's(3)',   in_0,  '.',  '.',  '.',  '.',  '.', '.', '.', '.', '.', local_1
 | local_0, 's(3)', in_0,  '.',  '.',  '.',  '.', '.', '.', '.', '.',     '.'
 |    in_0,    '.',  '.',  '.',  '.',  '.',  '.', '.', '.', '.', '.',     '.'
 |  's(0)',   in_1,  '.',  '.',  '.',  '.',  '.', '.', '.', '.', '.',     '.'
 |  's(1)',   in_0,  '.',  '.',  '.',  '.',  '.', '.', '.', '.', '.',     '.'
 |  's(2)',   in_6,  '.',  '.',  '.',  '.',  '.', '.', '.', '.', '.',     '.'
 |    in_6,    '.',  '.',  '.',  '.',  '.',  '.', '.', '.', '.', '.',     '.'
 |     '.',    '.',  '.',  '.',  '.',  '.',  '.', '.', '.', '.', '.',     '.'
 |];
register_states = 
[| local_1, '.', '.', '.', '.'
 | local_1, '.', '.', '.', '.'
 |    in_1, '.', '.', '.', '.'
 |    in_1, '.', '.', '.', '.'
 |    in_1, '.', '.', '.', '.'
 |    in_1, '.', '.', '.', '.'
 |    in_1, '.', '.', '.', '.'
 |    in_1, '.', '.', '.', '.'
 |    in_1, '.', '.', '.', '.'
 |    in_1, '.', '.', '.', '.'
 |  's(2)', '.', '.', '.', '.'
 |    in_6, '.', '.', '.', '.'
 |];
program = [POP, S(SET1), O('i32.store_6'), O('i32.add_0'), O('local.get_0'), O('i32.store_9'), O('i32.load16_u_1'), O('i32.sub_0'), O('i32.load8_u_4'), S(SET1), S(SET1)];
% time elapsed: 0.16 s
----------
value = 10;
fgas = [1, 1, 1, 1, 1, 1, 1, 1, 1, 1, 0];
fsize = [1, 1, 1, 1, 1, 1, 1, 1, 1, 1, 1];
states = 
[|    in_0,   in_1, in_2, in_3, in_4, in_5, in_6, '.', '.', '.', '.',    '.'
 |  's(0)',   in_1, in_2, in_3, in_4, in_5, in_6, '.', '.', '.', '.',    '.'
 |  's(0)',   in_1, in_2, in_3, in_4, in_5, in_6, '.', '.', '.', '.',    '.'
 |  's(1)',   in_0, in_3, in_4, in_5, in_6,  '.', '.', '.', '.', '.',    '.'
 |  's(2)',   in_2, in_3, in_4, in_5, in_6,  '.', '.', '.', '.', '.',    '.'
 |    in_2,   in_3, in_4, in_5, in_6,  '.',  '.', '.', '.', '.', '.',    '.'
 |    in_4,   in_5, in_6,  '.',  '.',  '.',  '.', '.', '.', '.', '.',    '.'
 |  's(3)',   in_0,  '.',  '.',  '.',  '.',  '.', '.', '.', '.', '.', 's(2)'
 | local_0, 's(3)', in_0,  '.',  '.',  '.',  '.', '.', '.', '.', '.',    '.'
 |    in_6,    '.',  '.',  '.',  '.',  '.',  '.', '.', '.', '.', '.',    '.'
 |     '.',    '.',  '.',  '.',  '.',  '.',  '.', '.', '.', '.', '.',    '.'
 |     '.',    '.',  '.',  '.',  '.',  '.',  '.', '.', '.', '.', '.',    '.'
 |];
register_states = 
[| local_1, '.', '.', '.', '.'
 | local_1, '.', '.', '.', '.'
 |  's(0)', '.', '.', '.', '.'
 |  's(0)', '.', '.', '.', '.'
 |  's(0)', '.', '.', '.', '.'
 |  's(2)', '.', '.', '.', '.'
 |  's(2)', '.', '.', '.', '.'
 |  's(2)', '.', '.', '.', '.'
 |  's(2)', '.', '.', '.', '.'
 |  's(2)', '.', '.', '.', '.'
 |    in_6, '.', '.', '.', '.'
 |    in_6, '.', '.', '.', '.'
 |];
program = [O('i32.load16_u_1'), TEE(TEE1), O('i32.sub_0'), O('i32.load8_u_4'), S(SET1), O('i32.store_6'), O('i32.add_0'), O('local.get_0'), O('i32.store_9'), S(SET1), NOP];
% time elapsed: 0.17 s
----------
value = 9;
fgas = [1, 1, 1, 1, 1, 1, 1, 1, 1, 0, 0];
fsize = [1, 1, 1, 1, 1, 1, 1, 1, 1, 1, 1];
states = 
[|    in_0,   in_1,   in_2, in_3, in_4, in_5, in_6, '.', '.', '.', '.',  '.'
 |  's(0)',   in_1,   in_2, in_3, in_4, in_5, in_6, '.', '.', '.', '.',  '.'
 |  's(1)',   in_0,   in_3, in_4, in_5, in_6,  '.', '.', '.', '.', '.', in_1
 |  's(2)', 's(3)',   in_3, in_4, in_5, in_6,  '.', '.', '.', '.', '.', in_1
 | local_0, 's(3)', 's(3)', in_3, in_4, in_5, in_6, '.', '.', '.', '.',  '.'
 |    in_2,   in_3,   in_4, in_5, in_6,  '.',  '.', '.', '.', '.', '.',  '.'
 |    in_4,   in_5,   in_6,  '.',  '.',  '.',  '.', '.', '.', '.', '.',  '.'
 |  's(3)',   in_6,    '.',  '.',  '.',  '.',  '.', '.', '.', '.', '.',  '.'
 |    in_6,    '.',    '.',  '.',  '.',  '.',  '.', '.', '.', '.', '.',  '.'
 |     '.',    '.',    '.',  '.',  '.',  '.',  '.', '.', '.', '.', '.',  '.'
 |     '.',    '.',    '.',  '.',  '.',  '.',  '.', '.', '.', '.', '.',  '.'
 |     '.',    '.',    '.',  '.',  '.',  '.',  '.', '.', '.', '.', '.',  '.'
 |];
register_states = 
[| local_1, '.', '.', '.', '.'
 | local_1, '.', '.', '.', '.'
 | local_1, '.', '.', '.', '.'
 | local_1, '.', '.', '.', '.'
 | local_1, '.', '.', '.', '.'
 | local_1, '.', '.', '.', '.'
 | local_1, '.', '.', '.', '.'
 | local_1, '.', '.', '.', '.'
 |  's(3)', '.', '.', '.', '.'
 |    in_6, '.', '.', '.', '.'
 |    in_6, '.', '.', '.', '.'
 |    in_6, '.', '.', '.', '.'
 |];
program = [O('i32.load16_u_1'), O('i32.sub_0'), O('i32.load8_u_4'), O('local.get_0'), O('i32.store_9'), O('i32.store_6'), O('i32.add_0'), S(SET1), S(SET1), NOP, NOP];
% time elapsed: 0.17 s
----------
==========
% time elapsed: 0.18 s
% [value > 8]
